
  22    4
   1   1   1   1

   0   0   0   0   0  12 2 3 4 6 7 8 9 10 18 19 20 21 
   4   1   0   0   0   3   14   13   11
   3   0   0   1   1   3   14   13   11
   4   0   0   0   1   1   5
   10   1   0   0   1   2   13   12
   3   0   1   0   1   2   17   16
   9   1   1   1   0   2   15   12
   6   0   0   1   1   2   14   11
   8   1   1   0   0   1   12
   3   1   1   1   0   1   11
   5   1   0   1   1   1   22
   4   1   0   1   0   1   22
   10   1   1   0   1   1   22
   8   1   1   0   1   1   22
   10   0   0   1   1   1   22
   7   0   1   1   0   1   22
   2   0   0   0   1   1   22
   8   1   1   1   0   1   22
   7   0   0   1   1   1   22
   10   1   0   0   0   1   22
   4   0   0   0   1   1   22
   0   0   0   0   0   0 
